Route #1: 27 10 7 11 50 46
Route #2: 39 36 1 49 35 19 20 14
Route #3: 53 44 40 64 6 34 42 4
Route #4: 62 61 30 57 3 60
Route #5: 63 25 21 48 9
Route #6: 5 28 13
Route #7: 58 56 15 55 54 22 52 45 12
Route #8: 31 18 26 2 47 33
Route #9: 66 51 32 8 23 37 65
Route #10: 17 38 29 24 59 41 43 16
Cost 1033
Time 0.12875
